100 8
339 747
112 828
395 738
859 655
400 798
253 695
867 263
485 619
717 574
196 211
659 255
575 436
905 321
412 676
610 145
550 396
666 254
562 321
315 730
147 442
563 232
476 214
119 350
659 173
598 220
599 436
486 809
804 404
57 794
288 561
640 285
476 883
305 260
806 585
750 647
818 342
41 917
899 278
593 931
539 737
141 925
524 932
667 184
180 290
522 802
521 604
834 372
228 325
535 429
806 707
627 350
113 853
964 319
835 745
557 218
299 460
776 607
511 627
10 856
551 200
459 672
470 863
927 298
742 101
805 277
244 315
618 97
976 334
282 623
387 827
32 751
821 270
312 352
196 328
556 379
330 593
418 571
167 337
873 318
610 822
844 742
594 458
759 104
704 312
507 524
451 716
519 842
647 210
565 531
610 817
877 735
858 755
821 305
833 502
387 627
567 679
438 854
877 764
420 369
347 639
